NAME: tsp_64
COMMENT: Random TSP instance
TYPE: TSP
DIMENSION: 50
EDGE_WEIGHT_TYPE: EUC_2D
NODE_COORD_SECTION
1 892 847
2 944 52
3 888 142
4 31 14
5 52 865
6 499 777
7 869 454
8 505 875
9 878 438
10 219 255
11 814 956
12 989 653
13 30 432
14 61 447
15 651 955
16 23 410
17 869 281
18 626 402
19 191 511
20 306 716
21 816 952
22 611 824
23 695 819
24 736 497
25 118 981
26 662 551
27 285 275
28 600 482
29 410 660
30 748 615
31 300 629
32 954 662
33 688 521
34 692 205
35 825 657
36 886 754
37 899 63
38 833 166
39 912 475
40 984 265
41 289 312
42 667 219
43 185 325
44 79 261
45 107 4
46 496 410
47 856 855
48 878 313
49 45 157
50 278 74
